910830
22 24 45980
24 5 63665
5 32 3290
32 12 37145
12 33 3967
33 26 15458
26 20 24941
20 30 17244
30 37 941
37 39 6534
39 31 9087
31 25 7859
25 34 30137
34 23 31609
23 38 7449
38 29 745
29 28 17517
28 13 6411
13 7 23211
7 36 11794
36 6 22446
6 9 47658
9 8 54349
8 15 26227
15 17 45489
17 14 42391
14 3 30026
3 16 71701
16 2 57771
2 35 10541
35 11 5412
11 10 5506
10 1 6947
1 21 6578
21 18 18931
18 27 12606
27 40 17541
40 19 13572
19 4 26533
4 22 23621
